
  12   12
  10   10   10   10   10   10   10   10   10   10   10   10

   0   0   0   0   0   0   0   0   0   0   0   0   0   5 2 4 5 10 11 
   9   0   0   0   0   0   0   0   0   0   0   0   0   2 9 3 
   3   1   0   0   0   0   0   0   0   0   0   1   0   2 8 6 
   7   0   0   0   0   1   0   1   0   0   5   9   1   2 8 7 
   9   8   0   1   0   0   0   0   0   0   0   0   0   1 6 
  10   5   1   8   1   0   1   6   0   1   0   0   0   1 7 
   1   0   7   6   0   0   0   0   1   0   0   5   0   1 12
   2   0   5   0   0   0   9   0   9   0   0   0   0   1 12
   1   6   0   5   9   9   0   6   0   9   0   0   9   1 12
   1   0   7   0   0   0   0   7   0   0   0   0   0   1 12
   4   0   5   0   0   5   0   0   5   0   0   0   0   1 12
   0   0   0   0   0   0   0   0   0   0   0   0   0   0 
